! Solving for graph /home/truongxuanhieu/CPLEX-CP-for-MinSpanLabeling/benchmarks/cabp/U-662_bus.mtx.rnd
! Target value is set to 247
! Lower bound is set to 248
! Upper bound is set to 993
! Time limit is set to 1800
! Vertices mode is set to Has hole
! Target value mode is set to Cyclic
 ! --------------------------------------------------- CP Optimizer 22.2.0.0 --
 ! Minimization problem - 663 variables, 908 constraints, 1 phase
 ! TimeLimit            = 1800
 ! LogVerbosity         = Terse
 ! Initial process time : 0.02s (0.02s extraction + 0.00s propagation)
 !  . Log search space  : 6598.6 (before), 6598.6 (after)
 !  . Memory usage      : 2.1 MB (before), 2.1 MB (after)
 ! Using parallel search with 8 workers.
 ! ----------------------------------------------------------------------------
 !          Best Branches  Non-fixed    W       Branch decision
                        0        663                 -
 + New bound is 494
 *           993      680  0.13s        6      (gap is 50.25%)
 *           988     1460  0.18s        1      (gap is 50.00%)
             988    1520k        597    1   F        -
 + New bound is 502 (gap is 49.19%)
             988    1520k        597    1   F        -
 + New bound is 503 (gap is 49.09%)
             988    2586k        484    4   F   286 != _int660
 + New bound is 534 (gap is 45.95%)
             988    2586k        484    4   F   286 != _int660
 + New bound is 535 (gap is 45.85%)
             988    2469k        644    1   F        -
 + New bound is 536 (gap is 45.75%)
             988    2688k        662    4   F   289 != _int660
 + New bound is 537 (gap is 45.65%)
             988    2586k        569    1   F        -
 + New bound is 538 (gap is 45.55%)
             988    2695k        561    1   F        -
 + New bound is 546 (gap is 44.74%)
             988    2695k        561    1   F        -
 + New bound is 547 (gap is 44.64%)
             988    3080k        658    7   F   306 != _int660
 + New bound is 554 (gap is 43.93%)
             988    3082k        598    1   F        -
 + New bound is 555 (gap is 43.83%)
             988    3107k        148    1   F        -
 + New bound is 562 (gap is 43.12%)
             988    3107k        148    1   F        -
 + New bound is 563 (gap is 43.02%)
             988    3209k        578    1   F        -
 + New bound is 570 (gap is 42.31%)
             988    3209k        578    1   F        -
 + New bound is 571 (gap is 42.21%)
             988    3312k        558    1   F        -
 + New bound is 578 (gap is 41.50%)
             988    3312k        558    1   F        -
 + New bound is 579 (gap is 41.40%)
 ! Time = 319.77s, Average fail depth = 121, Memory usage = 77.0 MB
 ! Current bound is 579 (gap is 41.40%)
 !          Best Branches  Non-fixed    W       Branch decision
             988    4102k        663    1            -
 + New bound is 988 (gap is 0.00%)
 ! ----------------------------------------------------------------------------
 ! Search completed, 2 solutions found.
 ! Best objective         : 988 (optimal - effective tol. is 0)
 ! Best bound             : 988
 ! ----------------------------------------------------------------------------
 ! Number of branches     : 28957811
 ! Number of fails        : 12937052
 ! Total memory usage     : 174.7 MB (173.8 MB CP Optimizer + 0.9 MB Concert)
 ! Time spent in solve    : 385.08s (385.06s engine + 0.02s extraction)
 ! Search speed (br. / s) : 75205.3
 ! ----------------------------------------------------------------------------
! --------------------------------------------------------
! Best span = 988
! Labeling: 495 1 1 1 248 248 1 495 1 1 495 1 1 1 248 1 1 248 1 248 248 248 1 495 248 248 1 495 248 1 248 248 1 1 248 1 1 248 495 248 1 248 1 1 1 1 1 1 248 248 1 248 1 248 1 248 248 1 248 248 248 1 248 1 248 742 248 1 1 1 1 248 1 248 1 1 1 1 1 495 1 1 1 1 1 248 1 248 248 248 1 1 248 742 1 1 248 248 1 1 248 1 248 1 1 1 495 248 1 248 248 1 248 1 1 1 248 248 1 1 248 248 1 248 1 495 1 1 495 495 1 1 1 248 248 1 1 495 1 742 248 1 248 1 248 248 1 1 1 248 1 248 1 1 248 1 1 1 1 248 1 248 1 1 1 248 495 248 495 495 248 1 1 495 1 248 495 495 248 1 1 1 495 495 1 248 248 248 248 495 495 248 1 248 1 248 1 1 248 495 248 248 1 1 495 495 1 1 1 248 248 1 248 248 1 1 495 1 1 248 248 248 1 248 1 248 1 1 1 1 495 1 248 495 495 1 1 248 248 1 495 248 742 1 495 1 1 1 248 1 495 248 1 495 1 1 248 495 1 495 248 495 1 248 248 248 248 248 248 495 1 1 1 248 248 1 1 1 1 248 1 1 248 248 1 1 1 248 1 1 1 248 248 1 1 495 1 1 248 1 1 248 248 495 1 248 1 1 495 1 495 495 248 495 248 495 1 248 248 1 1 248 248 1 1 248 1 248 1 495 1 1 742 1 1 1 248 1 248 1 248 1 988 248 248 248 1 1 1 495 248 1 248 248 1 1 1 1 248 1 1 495 1 1 248 1 495 1 1 248 248 248 248 495 1 495 248 1 495 248 1 1 1 1 248 1 248 248 495 1 495 1 1 248 1 248 495 248 1 1 1 1 248 248 742 495 1 1 495 248 248 1 248 248 1 248 495 495 248 1 1 248 1 495 495 495 1 248 248 1 1 248 248 248 495 248 248 248 248 248 1 1 495 248 1 248 1 1 1 1 1 1 495 1 495 1 248 1 1 1 495 248 1 1 495 495 1 1 248 248 1 248 1 1 495 248 1 248 495 495 495 1 495 1 248 248 1 1 248 495 248 495 495 248 1 495 495 495 248 1 248 1 1 1 1 248 248 248 248 1 1 495 248 248 495 495 495 1 248 1 1 248 248 1 1 495 248 248 1 1 1 495 1 248 1 1 1 1 1 495 1 495 1 1 248 248 248 1 248 248 248 1 1 1 1 495 248 495 1 1 1 248 1 1 248 495 1 1 1 248 1 495 248 248 1 1 1 248 248 248 495 248 1 1 495 495 248 1 1 1 495 248 1 248 1 1 495 1 1 495 248 248 1 248 1 1 248 1 495 248 248 742 248 1 495 1 1 1 1 1 495 1 1 248 248 248 1 248 495 495 1 248 495 1 1 1 248 1 1 248 1 1 1 1 1 248 1 248 248 248 248 1 1 1 1 248 495 248 495 248 1 495 
! -------------------------------------------------------- 
